\* Runway Optimization *\
Minimize
Total_runway_time_used: 78 Var_A320__A320 + 78 Var_A320__B752
 + 65 Var_A320__B77W + 65 Var_A320__T_A320 + 130 Var_A320__T_A320__A320
 + 130 Var_A320__T_A320__B752 + 130 Var_A320__T_A320__B77W
 + 195 Var_A320__T_A320__T_A320__A320 + 195 Var_A320__T_A320__T_A320__B752
 + 195 Var_A320__T_A320__T_A320__B77W + 195 Var_A320__T_A320__T_B738__A320
 + 195 Var_A320__T_A320__T_B738__B752 + 195 Var_A320__T_A320__T_B738__B77W
 + 195 Var_A320__T_A320__T_B77W__A320 + 195 Var_A320__T_A320__T_B77W__B752
 + 195 Var_A320__T_A320__T_B77W__B77W + 65 Var_A320__T_B738
 + 130 Var_A320__T_B738__A320 + 130 Var_A320__T_B738__B752
 + 130 Var_A320__T_B738__B77W + 195 Var_A320__T_B738__T_A320__A320
 + 195 Var_A320__T_B738__T_A320__B752 + 195 Var_A320__T_B738__T_A320__B77W
 + 195 Var_A320__T_B738__T_B738__A320 + 195 Var_A320__T_B738__T_B738__B752
 + 195 Var_A320__T_B738__T_B738__B77W + 195 Var_A320__T_B738__T_B77W__A320
 + 195 Var_A320__T_B738__T_B77W__B752 + 195 Var_A320__T_B738__T_B77W__B77W
 + 65 Var_A320__T_B77W + 130 Var_A320__T_B77W__A320
 + 130 Var_A320__T_B77W__B752 + 130 Var_A320__T_B77W__B77W
 + 195 Var_A320__T_B77W__T_A320__A320 + 195 Var_A320__T_B77W__T_A320__B752
 + 195 Var_A320__T_B77W__T_A320__B77W + 195 Var_A320__T_B77W__T_B738__A320
 + 195 Var_A320__T_B77W__T_B738__B752 + 195 Var_A320__T_B77W__T_B738__B77W
 + 195 Var_A320__T_B77W__T_B77W__A320 + 195 Var_A320__T_B77W__T_B77W__B752
 + 195 Var_A320__T_B77W__T_B77W__B77W + 78 Var_B752__A320 + 78 Var_B752__B752
 + 65 Var_B752__B77W + 65 Var_B752__T_A320 + 130 Var_B752__T_A320__A320
 + 130 Var_B752__T_A320__B752 + 130 Var_B752__T_A320__B77W
 + 195 Var_B752__T_A320__T_A320__A320 + 195 Var_B752__T_A320__T_A320__B752
 + 195 Var_B752__T_A320__T_A320__B77W + 195 Var_B752__T_A320__T_B738__A320
 + 195 Var_B752__T_A320__T_B738__B752 + 195 Var_B752__T_A320__T_B738__B77W
 + 195 Var_B752__T_A320__T_B77W__A320 + 195 Var_B752__T_A320__T_B77W__B752
 + 195 Var_B752__T_A320__T_B77W__B77W + 65 Var_B752__T_B738
 + 130 Var_B752__T_B738__A320 + 130 Var_B752__T_B738__B752
 + 130 Var_B752__T_B738__B77W + 195 Var_B752__T_B738__T_A320__A320
 + 195 Var_B752__T_B738__T_A320__B752 + 195 Var_B752__T_B738__T_A320__B77W
 + 195 Var_B752__T_B738__T_B738__A320 + 195 Var_B752__T_B738__T_B738__B752
 + 195 Var_B752__T_B738__T_B738__B77W + 195 Var_B752__T_B738__T_B77W__A320
 + 195 Var_B752__T_B738__T_B77W__B752 + 195 Var_B752__T_B738__T_B77W__B77W
 + 65 Var_B752__T_B77W + 130 Var_B752__T_B77W__A320
 + 130 Var_B752__T_B77W__B752 + 130 Var_B752__T_B77W__B77W
 + 195 Var_B752__T_B77W__T_A320__A320 + 195 Var_B752__T_B77W__T_A320__B752
 + 195 Var_B752__T_B77W__T_A320__B77W + 195 Var_B752__T_B77W__T_B738__A320
 + 195 Var_B752__T_B77W__T_B738__B752 + 195 Var_B752__T_B77W__T_B738__B77W
 + 195 Var_B752__T_B77W__T_B77W__A320 + 195 Var_B752__T_B77W__T_B77W__B752
 + 195 Var_B752__T_B77W__T_B77W__B77W + 95 Var_B77W__A320 + 95 Var_B77W__B752
 + 72 Var_B77W__B77W + 65 Var_B77W__T_A320 + 130 Var_B77W__T_A320__A320
 + 130 Var_B77W__T_A320__B752 + 130 Var_B77W__T_A320__B77W
 + 195 Var_B77W__T_A320__T_A320__A320 + 195 Var_B77W__T_A320__T_A320__B752
 + 195 Var_B77W__T_A320__T_A320__B77W + 195 Var_B77W__T_A320__T_B738__A320
 + 195 Var_B77W__T_A320__T_B738__B752 + 195 Var_B77W__T_A320__T_B738__B77W
 + 195 Var_B77W__T_A320__T_B77W__A320 + 195 Var_B77W__T_A320__T_B77W__B752
 + 195 Var_B77W__T_A320__T_B77W__B77W + 65 Var_B77W__T_B738
 + 130 Var_B77W__T_B738__A320 + 130 Var_B77W__T_B738__B752
 + 130 Var_B77W__T_B738__B77W + 195 Var_B77W__T_B738__T_A320__A320
 + 195 Var_B77W__T_B738__T_A320__B752 + 195 Var_B77W__T_B738__T_A320__B77W
 + 195 Var_B77W__T_B738__T_B738__A320 + 195 Var_B77W__T_B738__T_B738__B752
 + 195 Var_B77W__T_B738__T_B738__B77W + 195 Var_B77W__T_B738__T_B77W__A320
 + 195 Var_B77W__T_B738__T_B77W__B752 + 195 Var_B77W__T_B738__T_B77W__B77W
 + 65 Var_B77W__T_B77W + 130 Var_B77W__T_B77W__A320
 + 130 Var_B77W__T_B77W__B752 + 130 Var_B77W__T_B77W__B77W
 + 195 Var_B77W__T_B77W__T_A320__A320 + 195 Var_B77W__T_B77W__T_A320__B752
 + 195 Var_B77W__T_B77W__T_A320__B77W + 195 Var_B77W__T_B77W__T_B738__A320
 + 195 Var_B77W__T_B77W__T_B738__B752 + 195 Var_B77W__T_B77W__T_B738__B77W
 + 195 Var_B77W__T_B77W__T_B77W__A320 + 195 Var_B77W__T_B77W__T_B77W__B752
 + 195 Var_B77W__T_B77W__T_B77W__B77W + 65 Var_T_A320__T_A320
 + 65 Var_T_A320__T_B738 + 65 Var_T_A320__T_B77W + 65 Var_T_B738__T_A320
 + 65 Var_T_B738__T_B738 + 65 Var_T_B738__T_B77W + 65 Var_T_B77W__T_A320
 + 65 Var_T_B77W__T_B738 + 65 Var_T_B77W__T_B77W
Subject To
Number_of_A320_landed: Var_0__A320 + Var_A320__A320 + Var_A320__T_A320__A320
 + Var_A320__T_A320__T_A320__A320 + Var_A320__T_A320__T_B738__A320
 + Var_A320__T_A320__T_B77W__A320 + Var_A320__T_B738__A320
 + Var_A320__T_B738__T_A320__A320 + Var_A320__T_B738__T_B738__A320
 + Var_A320__T_B738__T_B77W__A320 + Var_A320__T_B77W__A320
 + Var_A320__T_B77W__T_A320__A320 + Var_A320__T_B77W__T_B738__A320
 + Var_A320__T_B77W__T_B77W__A320 + Var_B752__A320 + Var_B752__T_A320__A320
 + Var_B752__T_A320__T_A320__A320 + Var_B752__T_A320__T_B738__A320
 + Var_B752__T_A320__T_B77W__A320 + Var_B752__T_B738__A320
 + Var_B752__T_B738__T_A320__A320 + Var_B752__T_B738__T_B738__A320
 + Var_B752__T_B738__T_B77W__A320 + Var_B752__T_B77W__A320
 + Var_B752__T_B77W__T_A320__A320 + Var_B752__T_B77W__T_B738__A320
 + Var_B752__T_B77W__T_B77W__A320 + Var_B77W__A320 + Var_B77W__T_A320__A320
 + Var_B77W__T_A320__T_A320__A320 + Var_B77W__T_A320__T_B738__A320
 + Var_B77W__T_A320__T_B77W__A320 + Var_B77W__T_B738__A320
 + Var_B77W__T_B738__T_A320__A320 + Var_B77W__T_B738__T_B738__A320
 + Var_B77W__T_B738__T_B77W__A320 + Var_B77W__T_B77W__A320
 + Var_B77W__T_B77W__T_A320__A320 + Var_B77W__T_B77W__T_B738__A320
 + Var_B77W__T_B77W__T_B77W__A320 = 1
Number_of_B752_landed: Var_0__B752 + Var_A320__B752 + Var_A320__T_A320__B752
 + Var_A320__T_A320__T_A320__B752 + Var_A320__T_A320__T_B738__B752
 + Var_A320__T_A320__T_B77W__B752 + Var_A320__T_B738__B752
 + Var_A320__T_B738__T_A320__B752 + Var_A320__T_B738__T_B738__B752
 + Var_A320__T_B738__T_B77W__B752 + Var_A320__T_B77W__B752
 + Var_A320__T_B77W__T_A320__B752 + Var_A320__T_B77W__T_B738__B752
 + Var_A320__T_B77W__T_B77W__B752 + Var_B752__B752 + Var_B752__T_A320__B752
 + Var_B752__T_A320__T_A320__B752 + Var_B752__T_A320__T_B738__B752
 + Var_B752__T_A320__T_B77W__B752 + Var_B752__T_B738__B752
 + Var_B752__T_B738__T_A320__B752 + Var_B752__T_B738__T_B738__B752
 + Var_B752__T_B738__T_B77W__B752 + Var_B752__T_B77W__B752
 + Var_B752__T_B77W__T_A320__B752 + Var_B752__T_B77W__T_B738__B752
 + Var_B752__T_B77W__T_B77W__B752 + Var_B77W__B752 + Var_B77W__T_A320__B752
 + Var_B77W__T_A320__T_A320__B752 + Var_B77W__T_A320__T_B738__B752
 + Var_B77W__T_A320__T_B77W__B752 + Var_B77W__T_B738__B752
 + Var_B77W__T_B738__T_A320__B752 + Var_B77W__T_B738__T_B738__B752
 + Var_B77W__T_B738__T_B77W__B752 + Var_B77W__T_B77W__B752
 + Var_B77W__T_B77W__T_A320__B752 + Var_B77W__T_B77W__T_B738__B752
 + Var_B77W__T_B77W__T_B77W__B752 = 1
Number_of_B77W_landed: Var_0__B77W + Var_A320__B77W + Var_A320__T_A320__B77W
 + Var_A320__T_A320__T_A320__B77W + Var_A320__T_A320__T_B738__B77W
 + Var_A320__T_A320__T_B77W__B77W + Var_A320__T_B738__B77W
 + Var_A320__T_B738__T_A320__B77W + Var_A320__T_B738__T_B738__B77W
 + Var_A320__T_B738__T_B77W__B77W + Var_A320__T_B77W__B77W
 + Var_A320__T_B77W__T_A320__B77W + Var_A320__T_B77W__T_B738__B77W
 + Var_A320__T_B77W__T_B77W__B77W + Var_B752__B77W + Var_B752__T_A320__B77W
 + Var_B752__T_A320__T_A320__B77W + Var_B752__T_A320__T_B738__B77W
 + Var_B752__T_A320__T_B77W__B77W + Var_B752__T_B738__B77W
 + Var_B752__T_B738__T_A320__B77W + Var_B752__T_B738__T_B738__B77W
 + Var_B752__T_B738__T_B77W__B77W + Var_B752__T_B77W__B77W
 + Var_B752__T_B77W__T_A320__B77W + Var_B752__T_B77W__T_B738__B77W
 + Var_B752__T_B77W__T_B77W__B77W + Var_B77W__B77W + Var_B77W__T_A320__B77W
 + Var_B77W__T_A320__T_A320__B77W + Var_B77W__T_A320__T_B738__B77W
 + Var_B77W__T_A320__T_B77W__B77W + Var_B77W__T_B738__B77W
 + Var_B77W__T_B738__T_A320__B77W + Var_B77W__T_B738__T_B738__B77W
 + Var_B77W__T_B738__T_B77W__B77W + Var_B77W__T_B77W__B77W
 + Var_B77W__T_B77W__T_A320__B77W + Var_B77W__T_B77W__T_B738__B77W
 + Var_B77W__T_B77W__T_B77W__B77W = 3
Number_of_take_offs_of_A320: Var_A320__T_A320 + Var_A320__T_A320__A320
 + Var_A320__T_A320__B752 + Var_A320__T_A320__B77W
 + 2 Var_A320__T_A320__T_A320__A320 + 2 Var_A320__T_A320__T_A320__B752
 + 2 Var_A320__T_A320__T_A320__B77W + Var_A320__T_A320__T_B738__A320
 + Var_A320__T_A320__T_B738__B752 + Var_A320__T_A320__T_B738__B77W
 + Var_A320__T_A320__T_B77W__A320 + Var_A320__T_A320__T_B77W__B752
 + Var_A320__T_A320__T_B77W__B77W + Var_A320__T_B738__T_A320__A320
 + Var_A320__T_B738__T_A320__B752 + Var_A320__T_B738__T_A320__B77W
 + Var_A320__T_B77W__T_A320__A320 + Var_A320__T_B77W__T_A320__B752
 + Var_A320__T_B77W__T_A320__B77W + Var_B752__T_A320 + Var_B752__T_A320__A320
 + Var_B752__T_A320__B752 + Var_B752__T_A320__B77W
 + 2 Var_B752__T_A320__T_A320__A320 + 2 Var_B752__T_A320__T_A320__B752
 + 2 Var_B752__T_A320__T_A320__B77W + Var_B752__T_A320__T_B738__A320
 + Var_B752__T_A320__T_B738__B752 + Var_B752__T_A320__T_B738__B77W
 + Var_B752__T_A320__T_B77W__A320 + Var_B752__T_A320__T_B77W__B752
 + Var_B752__T_A320__T_B77W__B77W + Var_B752__T_B738__T_A320__A320
 + Var_B752__T_B738__T_A320__B752 + Var_B752__T_B738__T_A320__B77W
 + Var_B752__T_B77W__T_A320__A320 + Var_B752__T_B77W__T_A320__B752
 + Var_B752__T_B77W__T_A320__B77W + Var_B77W__T_A320 + Var_B77W__T_A320__A320
 + Var_B77W__T_A320__B752 + Var_B77W__T_A320__B77W
 + 2 Var_B77W__T_A320__T_A320__A320 + 2 Var_B77W__T_A320__T_A320__B752
 + 2 Var_B77W__T_A320__T_A320__B77W + Var_B77W__T_A320__T_B738__A320
 + Var_B77W__T_A320__T_B738__B752 + Var_B77W__T_A320__T_B738__B77W
 + Var_B77W__T_A320__T_B77W__A320 + Var_B77W__T_A320__T_B77W__B752
 + Var_B77W__T_A320__T_B77W__B77W + Var_B77W__T_B738__T_A320__A320
 + Var_B77W__T_B738__T_A320__B752 + Var_B77W__T_B738__T_A320__B77W
 + Var_B77W__T_B77W__T_A320__A320 + Var_B77W__T_B77W__T_A320__B752
 + Var_B77W__T_B77W__T_A320__B77W + Var_T_A320__T_A320 + Var_T_B738__T_A320
 + Var_T_B77W__T_A320 = 1
Number_of_take_offs_of_B738: Var_A320__T_A320__T_B738__A320
 + Var_A320__T_A320__T_B738__B752 + Var_A320__T_A320__T_B738__B77W
 + Var_A320__T_B738 + Var_A320__T_B738__A320 + Var_A320__T_B738__B752
 + Var_A320__T_B738__B77W + Var_A320__T_B738__T_A320__A320
 + Var_A320__T_B738__T_A320__B752 + Var_A320__T_B738__T_A320__B77W
 + 2 Var_A320__T_B738__T_B738__A320 + 2 Var_A320__T_B738__T_B738__B752
 + 2 Var_A320__T_B738__T_B738__B77W + Var_A320__T_B738__T_B77W__A320
 + Var_A320__T_B738__T_B77W__B752 + Var_A320__T_B738__T_B77W__B77W
 + Var_A320__T_B77W__T_B738__A320 + Var_A320__T_B77W__T_B738__B752
 + Var_A320__T_B77W__T_B738__B77W + Var_B752__T_A320__T_B738__A320
 + Var_B752__T_A320__T_B738__B752 + Var_B752__T_A320__T_B738__B77W
 + Var_B752__T_B738 + Var_B752__T_B738__A320 + Var_B752__T_B738__B752
 + Var_B752__T_B738__B77W + Var_B752__T_B738__T_A320__A320
 + Var_B752__T_B738__T_A320__B752 + Var_B752__T_B738__T_A320__B77W
 + 2 Var_B752__T_B738__T_B738__A320 + 2 Var_B752__T_B738__T_B738__B752
 + 2 Var_B752__T_B738__T_B738__B77W + Var_B752__T_B738__T_B77W__A320
 + Var_B752__T_B738__T_B77W__B752 + Var_B752__T_B738__T_B77W__B77W
 + Var_B752__T_B77W__T_B738__A320 + Var_B752__T_B77W__T_B738__B752
 + Var_B752__T_B77W__T_B738__B77W + Var_B77W__T_A320__T_B738__A320
 + Var_B77W__T_A320__T_B738__B752 + Var_B77W__T_A320__T_B738__B77W
 + Var_B77W__T_B738 + Var_B77W__T_B738__A320 + Var_B77W__T_B738__B752
 + Var_B77W__T_B738__B77W + Var_B77W__T_B738__T_A320__A320
 + Var_B77W__T_B738__T_A320__B752 + Var_B77W__T_B738__T_A320__B77W
 + 2 Var_B77W__T_B738__T_B738__A320 + 2 Var_B77W__T_B738__T_B738__B752
 + 2 Var_B77W__T_B738__T_B738__B77W + Var_B77W__T_B738__T_B77W__A320
 + Var_B77W__T_B738__T_B77W__B752 + Var_B77W__T_B738__T_B77W__B77W
 + Var_B77W__T_B77W__T_B738__A320 + Var_B77W__T_B77W__T_B738__B752
 + Var_B77W__T_B77W__T_B738__B77W + Var_T_A320__T_B738 + Var_T_B738__T_B738
 + Var_T_B77W__T_B738 = 3
Number_of_take_offs_of_B77W: Var_A320__T_A320__T_B77W__A320
 + Var_A320__T_A320__T_B77W__B752 + Var_A320__T_A320__T_B77W__B77W
 + Var_A320__T_B738__T_B77W__A320 + Var_A320__T_B738__T_B77W__B752
 + Var_A320__T_B738__T_B77W__B77W + Var_A320__T_B77W + Var_A320__T_B77W__A320
 + Var_A320__T_B77W__B752 + Var_A320__T_B77W__B77W
 + Var_A320__T_B77W__T_A320__A320 + Var_A320__T_B77W__T_A320__B752
 + Var_A320__T_B77W__T_A320__B77W + Var_A320__T_B77W__T_B738__A320
 + Var_A320__T_B77W__T_B738__B752 + Var_A320__T_B77W__T_B738__B77W
 + 2 Var_A320__T_B77W__T_B77W__A320 + 2 Var_A320__T_B77W__T_B77W__B752
 + 2 Var_A320__T_B77W__T_B77W__B77W + Var_B752__T_A320__T_B77W__A320
 + Var_B752__T_A320__T_B77W__B752 + Var_B752__T_A320__T_B77W__B77W
 + Var_B752__T_B738__T_B77W__A320 + Var_B752__T_B738__T_B77W__B752
 + Var_B752__T_B738__T_B77W__B77W + Var_B752__T_B77W + Var_B752__T_B77W__A320
 + Var_B752__T_B77W__B752 + Var_B752__T_B77W__B77W
 + Var_B752__T_B77W__T_A320__A320 + Var_B752__T_B77W__T_A320__B752
 + Var_B752__T_B77W__T_A320__B77W + Var_B752__T_B77W__T_B738__A320
 + Var_B752__T_B77W__T_B738__B752 + Var_B752__T_B77W__T_B738__B77W
 + 2 Var_B752__T_B77W__T_B77W__A320 + 2 Var_B752__T_B77W__T_B77W__B752
 + 2 Var_B752__T_B77W__T_B77W__B77W + Var_B77W__T_A320__T_B77W__A320
 + Var_B77W__T_A320__T_B77W__B752 + Var_B77W__T_A320__T_B77W__B77W
 + Var_B77W__T_B738__T_B77W__A320 + Var_B77W__T_B738__T_B77W__B752
 + Var_B77W__T_B738__T_B77W__B77W + Var_B77W__T_B77W + Var_B77W__T_B77W__A320
 + Var_B77W__T_B77W__B752 + Var_B77W__T_B77W__B77W
 + Var_B77W__T_B77W__T_A320__A320 + Var_B77W__T_B77W__T_A320__B752
 + Var_B77W__T_B77W__T_A320__B77W + Var_B77W__T_B77W__T_B738__A320
 + Var_B77W__T_B77W__T_B738__B752 + Var_B77W__T_B77W__T_B738__B77W
 + 2 Var_B77W__T_B77W__T_B77W__A320 + 2 Var_B77W__T_B77W__T_B77W__B752
 + 2 Var_B77W__T_B77W__T_B77W__B77W + Var_T_A320__T_B77W + Var_T_B738__T_B77W
 + Var_T_B77W__T_B77W = 2
_C1: Var_0__B77W = 1
head_tails_constraint_of_A320: Var_0__A320 - Var_A320__0 + 0 Var_A320__A320
 - Var_A320__B752 - Var_A320__B77W - Var_A320__T_A320
 + 0 Var_A320__T_A320__A320 - Var_A320__T_A320__B752 - Var_A320__T_A320__B77W
 + 0 Var_A320__T_A320__T_A320__A320 - Var_A320__T_A320__T_A320__B752
 - Var_A320__T_A320__T_A320__B77W + 0 Var_A320__T_A320__T_B738__A320
 - Var_A320__T_A320__T_B738__B752 - Var_A320__T_A320__T_B738__B77W
 + 0 Var_A320__T_A320__T_B77W__A320 - Var_A320__T_A320__T_B77W__B752
 - Var_A320__T_A320__T_B77W__B77W - Var_A320__T_B738
 + 0 Var_A320__T_B738__A320 - Var_A320__T_B738__B752 - Var_A320__T_B738__B77W
 + 0 Var_A320__T_B738__T_A320__A320 - Var_A320__T_B738__T_A320__B752
 - Var_A320__T_B738__T_A320__B77W + 0 Var_A320__T_B738__T_B738__A320
 - Var_A320__T_B738__T_B738__B752 - Var_A320__T_B738__T_B738__B77W
 + 0 Var_A320__T_B738__T_B77W__A320 - Var_A320__T_B738__T_B77W__B752
 - Var_A320__T_B738__T_B77W__B77W - Var_A320__T_B77W
 + 0 Var_A320__T_B77W__A320 - Var_A320__T_B77W__B752 - Var_A320__T_B77W__B77W
 + 0 Var_A320__T_B77W__T_A320__A320 - Var_A320__T_B77W__T_A320__B752
 - Var_A320__T_B77W__T_A320__B77W + 0 Var_A320__T_B77W__T_B738__A320
 - Var_A320__T_B77W__T_B738__B752 - Var_A320__T_B77W__T_B738__B77W
 + 0 Var_A320__T_B77W__T_B77W__A320 - Var_A320__T_B77W__T_B77W__B752
 - Var_A320__T_B77W__T_B77W__B77W + Var_B752__A320 + Var_B752__T_A320__A320
 + Var_B752__T_A320__T_A320__A320 + Var_B752__T_A320__T_B738__A320
 + Var_B752__T_A320__T_B77W__A320 + Var_B752__T_B738__A320
 + Var_B752__T_B738__T_A320__A320 + Var_B752__T_B738__T_B738__A320
 + Var_B752__T_B738__T_B77W__A320 + Var_B752__T_B77W__A320
 + Var_B752__T_B77W__T_A320__A320 + Var_B752__T_B77W__T_B738__A320
 + Var_B752__T_B77W__T_B77W__A320 + Var_B77W__A320 + Var_B77W__T_A320__A320
 + Var_B77W__T_A320__T_A320__A320 + Var_B77W__T_A320__T_B738__A320
 + Var_B77W__T_A320__T_B77W__A320 + Var_B77W__T_B738__A320
 + Var_B77W__T_B738__T_A320__A320 + Var_B77W__T_B738__T_B738__A320
 + Var_B77W__T_B738__T_B77W__A320 + Var_B77W__T_B77W__A320
 + Var_B77W__T_B77W__T_A320__A320 + Var_B77W__T_B77W__T_B738__A320
 + Var_B77W__T_B77W__T_B77W__A320 = 0
head_tails_constraint_of_B752: Var_0__B752 + Var_A320__B752
 + Var_A320__T_A320__B752 + Var_A320__T_A320__T_A320__B752
 + Var_A320__T_A320__T_B738__B752 + Var_A320__T_A320__T_B77W__B752
 + Var_A320__T_B738__B752 + Var_A320__T_B738__T_A320__B752
 + Var_A320__T_B738__T_B738__B752 + Var_A320__T_B738__T_B77W__B752
 + Var_A320__T_B77W__B752 + Var_A320__T_B77W__T_A320__B752
 + Var_A320__T_B77W__T_B738__B752 + Var_A320__T_B77W__T_B77W__B752
 - Var_B752__0 - Var_B752__A320 + 0 Var_B752__B752 - Var_B752__B77W
 - Var_B752__T_A320 - Var_B752__T_A320__A320 + 0 Var_B752__T_A320__B752
 - Var_B752__T_A320__B77W - Var_B752__T_A320__T_A320__A320
 + 0 Var_B752__T_A320__T_A320__B752 - Var_B752__T_A320__T_A320__B77W
 - Var_B752__T_A320__T_B738__A320 + 0 Var_B752__T_A320__T_B738__B752
 - Var_B752__T_A320__T_B738__B77W - Var_B752__T_A320__T_B77W__A320
 + 0 Var_B752__T_A320__T_B77W__B752 - Var_B752__T_A320__T_B77W__B77W
 - Var_B752__T_B738 - Var_B752__T_B738__A320 + 0 Var_B752__T_B738__B752
 - Var_B752__T_B738__B77W - Var_B752__T_B738__T_A320__A320
 + 0 Var_B752__T_B738__T_A320__B752 - Var_B752__T_B738__T_A320__B77W
 - Var_B752__T_B738__T_B738__A320 + 0 Var_B752__T_B738__T_B738__B752
 - Var_B752__T_B738__T_B738__B77W - Var_B752__T_B738__T_B77W__A320
 + 0 Var_B752__T_B738__T_B77W__B752 - Var_B752__T_B738__T_B77W__B77W
 - Var_B752__T_B77W - Var_B752__T_B77W__A320 + 0 Var_B752__T_B77W__B752
 - Var_B752__T_B77W__B77W - Var_B752__T_B77W__T_A320__A320
 + 0 Var_B752__T_B77W__T_A320__B752 - Var_B752__T_B77W__T_A320__B77W
 - Var_B752__T_B77W__T_B738__A320 + 0 Var_B752__T_B77W__T_B738__B752
 - Var_B752__T_B77W__T_B738__B77W - Var_B752__T_B77W__T_B77W__A320
 + 0 Var_B752__T_B77W__T_B77W__B752 - Var_B752__T_B77W__T_B77W__B77W
 + Var_B77W__B752 + Var_B77W__T_A320__B752 + Var_B77W__T_A320__T_A320__B752
 + Var_B77W__T_A320__T_B738__B752 + Var_B77W__T_A320__T_B77W__B752
 + Var_B77W__T_B738__B752 + Var_B77W__T_B738__T_A320__B752
 + Var_B77W__T_B738__T_B738__B752 + Var_B77W__T_B738__T_B77W__B752
 + Var_B77W__T_B77W__B752 + Var_B77W__T_B77W__T_A320__B752
 + Var_B77W__T_B77W__T_B738__B752 + Var_B77W__T_B77W__T_B77W__B752 = 0
head_tails_constraint_of_B77W: Var_0__B77W + Var_A320__B77W
 + Var_A320__T_A320__B77W + Var_A320__T_A320__T_A320__B77W
 + Var_A320__T_A320__T_B738__B77W + Var_A320__T_A320__T_B77W__B77W
 + Var_A320__T_B738__B77W + Var_A320__T_B738__T_A320__B77W
 + Var_A320__T_B738__T_B738__B77W + Var_A320__T_B738__T_B77W__B77W
 + Var_A320__T_B77W__B77W + Var_A320__T_B77W__T_A320__B77W
 + Var_A320__T_B77W__T_B738__B77W + Var_A320__T_B77W__T_B77W__B77W
 + Var_B752__B77W + Var_B752__T_A320__B77W + Var_B752__T_A320__T_A320__B77W
 + Var_B752__T_A320__T_B738__B77W + Var_B752__T_A320__T_B77W__B77W
 + Var_B752__T_B738__B77W + Var_B752__T_B738__T_A320__B77W
 + Var_B752__T_B738__T_B738__B77W + Var_B752__T_B738__T_B77W__B77W
 + Var_B752__T_B77W__B77W + Var_B752__T_B77W__T_A320__B77W
 + Var_B752__T_B77W__T_B738__B77W + Var_B752__T_B77W__T_B77W__B77W
 - Var_B77W__0 - Var_B77W__A320 - Var_B77W__B752 + 0 Var_B77W__B77W
 - Var_B77W__T_A320 - Var_B77W__T_A320__A320 - Var_B77W__T_A320__B752
 + 0 Var_B77W__T_A320__B77W - Var_B77W__T_A320__T_A320__A320
 - Var_B77W__T_A320__T_A320__B752 + 0 Var_B77W__T_A320__T_A320__B77W
 - Var_B77W__T_A320__T_B738__A320 - Var_B77W__T_A320__T_B738__B752
 + 0 Var_B77W__T_A320__T_B738__B77W - Var_B77W__T_A320__T_B77W__A320
 - Var_B77W__T_A320__T_B77W__B752 + 0 Var_B77W__T_A320__T_B77W__B77W
 - Var_B77W__T_B738 - Var_B77W__T_B738__A320 - Var_B77W__T_B738__B752
 + 0 Var_B77W__T_B738__B77W - Var_B77W__T_B738__T_A320__A320
 - Var_B77W__T_B738__T_A320__B752 + 0 Var_B77W__T_B738__T_A320__B77W
 - Var_B77W__T_B738__T_B738__A320 - Var_B77W__T_B738__T_B738__B752
 + 0 Var_B77W__T_B738__T_B738__B77W - Var_B77W__T_B738__T_B77W__A320
 - Var_B77W__T_B738__T_B77W__B752 + 0 Var_B77W__T_B738__T_B77W__B77W
 - Var_B77W__T_B77W - Var_B77W__T_B77W__A320 - Var_B77W__T_B77W__B752
 + 0 Var_B77W__T_B77W__B77W - Var_B77W__T_B77W__T_A320__A320
 - Var_B77W__T_B77W__T_A320__B752 + 0 Var_B77W__T_B77W__T_A320__B77W
 - Var_B77W__T_B77W__T_B738__A320 - Var_B77W__T_B77W__T_B738__B752
 + 0 Var_B77W__T_B77W__T_B738__B77W - Var_B77W__T_B77W__T_B77W__A320
 - Var_B77W__T_B77W__T_B77W__B752 + 0 Var_B77W__T_B77W__T_B77W__B77W = 0
last_plane_criterion: Var_A320__0 + Var_B752__0 + Var_B77W__0 + Var_T_A320__0
 + Var_T_B738__0 + Var_T_B77W__0 = 1
starting_plane_criterion: Var_0__A320 + Var_0__B752 + Var_0__B77W = 1
switch_to_A320: Var_0__A320 + Var_B752__A320 + Var_B752__T_A320__A320
 + Var_B752__T_A320__T_A320__A320 + Var_B752__T_A320__T_B738__A320
 + Var_B752__T_A320__T_B77W__A320 + Var_B752__T_B738__A320
 + Var_B752__T_B738__T_A320__A320 + Var_B752__T_B738__T_B738__A320
 + Var_B752__T_B738__T_B77W__A320 + Var_B752__T_B77W__A320
 + Var_B752__T_B77W__T_A320__A320 + Var_B752__T_B77W__T_B738__A320
 + Var_B752__T_B77W__T_B77W__A320 + Var_B77W__A320 + Var_B77W__T_A320__A320
 + Var_B77W__T_A320__T_A320__A320 + Var_B77W__T_A320__T_B738__A320
 + Var_B77W__T_A320__T_B77W__A320 + Var_B77W__T_B738__A320
 + Var_B77W__T_B738__T_A320__A320 + Var_B77W__T_B738__T_B738__A320
 + Var_B77W__T_B738__T_B77W__A320 + Var_B77W__T_B77W__A320
 + Var_B77W__T_B77W__T_A320__A320 + Var_B77W__T_B77W__T_B738__A320
 + Var_B77W__T_B77W__T_B77W__A320 >= 1
switch_to_B752: Var_0__B752 + Var_A320__B752 + Var_A320__T_A320__B752
 + Var_A320__T_A320__T_A320__B752 + Var_A320__T_A320__T_B738__B752
 + Var_A320__T_A320__T_B77W__B752 + Var_A320__T_B738__B752
 + Var_A320__T_B738__T_A320__B752 + Var_A320__T_B738__T_B738__B752
 + Var_A320__T_B738__T_B77W__B752 + Var_A320__T_B77W__B752
 + Var_A320__T_B77W__T_A320__B752 + Var_A320__T_B77W__T_B738__B752
 + Var_A320__T_B77W__T_B77W__B752 + Var_B77W__B752 + Var_B77W__T_A320__B752
 + Var_B77W__T_A320__T_A320__B752 + Var_B77W__T_A320__T_B738__B752
 + Var_B77W__T_A320__T_B77W__B752 + Var_B77W__T_B738__B752
 + Var_B77W__T_B738__T_A320__B752 + Var_B77W__T_B738__T_B738__B752
 + Var_B77W__T_B738__T_B77W__B752 + Var_B77W__T_B77W__B752
 + Var_B77W__T_B77W__T_A320__B752 + Var_B77W__T_B77W__T_B738__B752
 + Var_B77W__T_B77W__T_B77W__B752 >= 1
switch_to_B77W: Var_0__B77W + Var_A320__B77W + Var_A320__T_A320__B77W
 + Var_A320__T_A320__T_A320__B77W + Var_A320__T_A320__T_B738__B77W
 + Var_A320__T_A320__T_B77W__B77W + Var_A320__T_B738__B77W
 + Var_A320__T_B738__T_A320__B77W + Var_A320__T_B738__T_B738__B77W
 + Var_A320__T_B738__T_B77W__B77W + Var_A320__T_B77W__B77W
 + Var_A320__T_B77W__T_A320__B77W + Var_A320__T_B77W__T_B738__B77W
 + Var_A320__T_B77W__T_B77W__B77W + Var_B752__B77W + Var_B752__T_A320__B77W
 + Var_B752__T_A320__T_A320__B77W + Var_B752__T_A320__T_B738__B77W
 + Var_B752__T_A320__T_B77W__B77W + Var_B752__T_B738__B77W
 + Var_B752__T_B738__T_A320__B77W + Var_B752__T_B738__T_B738__B77W
 + Var_B752__T_B738__T_B77W__B77W + Var_B752__T_B77W__B77W
 + Var_B752__T_B77W__T_A320__B77W + Var_B752__T_B77W__T_B738__B77W
 + Var_B752__T_B77W__T_B77W__B77W >= 1
Bounds
0 <= Var_0__A320
0 <= Var_0__B752
0 <= Var_0__B77W
0 <= Var_A320__0
0 <= Var_A320__A320
0 <= Var_A320__B752
0 <= Var_A320__B77W
0 <= Var_A320__T_A320
0 <= Var_A320__T_A320__A320
0 <= Var_A320__T_A320__B752
0 <= Var_A320__T_A320__B77W
0 <= Var_A320__T_A320__T_A320__A320
0 <= Var_A320__T_A320__T_A320__B752
0 <= Var_A320__T_A320__T_A320__B77W
0 <= Var_A320__T_A320__T_B738__A320
0 <= Var_A320__T_A320__T_B738__B752
0 <= Var_A320__T_A320__T_B738__B77W
0 <= Var_A320__T_A320__T_B77W__A320
0 <= Var_A320__T_A320__T_B77W__B752
0 <= Var_A320__T_A320__T_B77W__B77W
0 <= Var_A320__T_B738
0 <= Var_A320__T_B738__A320
0 <= Var_A320__T_B738__B752
0 <= Var_A320__T_B738__B77W
0 <= Var_A320__T_B738__T_A320__A320
0 <= Var_A320__T_B738__T_A320__B752
0 <= Var_A320__T_B738__T_A320__B77W
0 <= Var_A320__T_B738__T_B738__A320
0 <= Var_A320__T_B738__T_B738__B752
0 <= Var_A320__T_B738__T_B738__B77W
0 <= Var_A320__T_B738__T_B77W__A320
0 <= Var_A320__T_B738__T_B77W__B752
0 <= Var_A320__T_B738__T_B77W__B77W
0 <= Var_A320__T_B77W
0 <= Var_A320__T_B77W__A320
0 <= Var_A320__T_B77W__B752
0 <= Var_A320__T_B77W__B77W
0 <= Var_A320__T_B77W__T_A320__A320
0 <= Var_A320__T_B77W__T_A320__B752
0 <= Var_A320__T_B77W__T_A320__B77W
0 <= Var_A320__T_B77W__T_B738__A320
0 <= Var_A320__T_B77W__T_B738__B752
0 <= Var_A320__T_B77W__T_B738__B77W
0 <= Var_A320__T_B77W__T_B77W__A320
0 <= Var_A320__T_B77W__T_B77W__B752
0 <= Var_A320__T_B77W__T_B77W__B77W
0 <= Var_B752__0
0 <= Var_B752__A320
0 <= Var_B752__B752
0 <= Var_B752__B77W
0 <= Var_B752__T_A320
0 <= Var_B752__T_A320__A320
0 <= Var_B752__T_A320__B752
0 <= Var_B752__T_A320__B77W
0 <= Var_B752__T_A320__T_A320__A320
0 <= Var_B752__T_A320__T_A320__B752
0 <= Var_B752__T_A320__T_A320__B77W
0 <= Var_B752__T_A320__T_B738__A320
0 <= Var_B752__T_A320__T_B738__B752
0 <= Var_B752__T_A320__T_B738__B77W
0 <= Var_B752__T_A320__T_B77W__A320
0 <= Var_B752__T_A320__T_B77W__B752
0 <= Var_B752__T_A320__T_B77W__B77W
0 <= Var_B752__T_B738
0 <= Var_B752__T_B738__A320
0 <= Var_B752__T_B738__B752
0 <= Var_B752__T_B738__B77W
0 <= Var_B752__T_B738__T_A320__A320
0 <= Var_B752__T_B738__T_A320__B752
0 <= Var_B752__T_B738__T_A320__B77W
0 <= Var_B752__T_B738__T_B738__A320
0 <= Var_B752__T_B738__T_B738__B752
0 <= Var_B752__T_B738__T_B738__B77W
0 <= Var_B752__T_B738__T_B77W__A320
0 <= Var_B752__T_B738__T_B77W__B752
0 <= Var_B752__T_B738__T_B77W__B77W
0 <= Var_B752__T_B77W
0 <= Var_B752__T_B77W__A320
0 <= Var_B752__T_B77W__B752
0 <= Var_B752__T_B77W__B77W
0 <= Var_B752__T_B77W__T_A320__A320
0 <= Var_B752__T_B77W__T_A320__B752
0 <= Var_B752__T_B77W__T_A320__B77W
0 <= Var_B752__T_B77W__T_B738__A320
0 <= Var_B752__T_B77W__T_B738__B752
0 <= Var_B752__T_B77W__T_B738__B77W
0 <= Var_B752__T_B77W__T_B77W__A320
0 <= Var_B752__T_B77W__T_B77W__B752
0 <= Var_B752__T_B77W__T_B77W__B77W
0 <= Var_B77W__0
0 <= Var_B77W__A320
0 <= Var_B77W__B752
0 <= Var_B77W__B77W
0 <= Var_B77W__T_A320
0 <= Var_B77W__T_A320__A320
0 <= Var_B77W__T_A320__B752
0 <= Var_B77W__T_A320__B77W
0 <= Var_B77W__T_A320__T_A320__A320
0 <= Var_B77W__T_A320__T_A320__B752
0 <= Var_B77W__T_A320__T_A320__B77W
0 <= Var_B77W__T_A320__T_B738__A320
0 <= Var_B77W__T_A320__T_B738__B752
0 <= Var_B77W__T_A320__T_B738__B77W
0 <= Var_B77W__T_A320__T_B77W__A320
0 <= Var_B77W__T_A320__T_B77W__B752
0 <= Var_B77W__T_A320__T_B77W__B77W
0 <= Var_B77W__T_B738
0 <= Var_B77W__T_B738__A320
0 <= Var_B77W__T_B738__B752
0 <= Var_B77W__T_B738__B77W
0 <= Var_B77W__T_B738__T_A320__A320
0 <= Var_B77W__T_B738__T_A320__B752
0 <= Var_B77W__T_B738__T_A320__B77W
0 <= Var_B77W__T_B738__T_B738__A320
0 <= Var_B77W__T_B738__T_B738__B752
0 <= Var_B77W__T_B738__T_B738__B77W
0 <= Var_B77W__T_B738__T_B77W__A320
0 <= Var_B77W__T_B738__T_B77W__B752
0 <= Var_B77W__T_B738__T_B77W__B77W
0 <= Var_B77W__T_B77W
0 <= Var_B77W__T_B77W__A320
0 <= Var_B77W__T_B77W__B752
0 <= Var_B77W__T_B77W__B77W
0 <= Var_B77W__T_B77W__T_A320__A320
0 <= Var_B77W__T_B77W__T_A320__B752
0 <= Var_B77W__T_B77W__T_A320__B77W
0 <= Var_B77W__T_B77W__T_B738__A320
0 <= Var_B77W__T_B77W__T_B738__B752
0 <= Var_B77W__T_B77W__T_B738__B77W
0 <= Var_B77W__T_B77W__T_B77W__A320
0 <= Var_B77W__T_B77W__T_B77W__B752
0 <= Var_B77W__T_B77W__T_B77W__B77W
0 <= Var_T_A320__0
0 <= Var_T_A320__T_A320
0 <= Var_T_A320__T_B738
0 <= Var_T_A320__T_B77W
0 <= Var_T_B738__0
0 <= Var_T_B738__T_A320
0 <= Var_T_B738__T_B738
0 <= Var_T_B738__T_B77W
0 <= Var_T_B77W__0
0 <= Var_T_B77W__T_A320
0 <= Var_T_B77W__T_B738
0 <= Var_T_B77W__T_B77W
Generals
Var_0__A320
Var_0__B752
Var_0__B77W
Var_A320__0
Var_A320__A320
Var_A320__B752
Var_A320__B77W
Var_A320__T_A320
Var_A320__T_A320__A320
Var_A320__T_A320__B752
Var_A320__T_A320__B77W
Var_A320__T_A320__T_A320__A320
Var_A320__T_A320__T_A320__B752
Var_A320__T_A320__T_A320__B77W
Var_A320__T_A320__T_B738__A320
Var_A320__T_A320__T_B738__B752
Var_A320__T_A320__T_B738__B77W
Var_A320__T_A320__T_B77W__A320
Var_A320__T_A320__T_B77W__B752
Var_A320__T_A320__T_B77W__B77W
Var_A320__T_B738
Var_A320__T_B738__A320
Var_A320__T_B738__B752
Var_A320__T_B738__B77W
Var_A320__T_B738__T_A320__A320
Var_A320__T_B738__T_A320__B752
Var_A320__T_B738__T_A320__B77W
Var_A320__T_B738__T_B738__A320
Var_A320__T_B738__T_B738__B752
Var_A320__T_B738__T_B738__B77W
Var_A320__T_B738__T_B77W__A320
Var_A320__T_B738__T_B77W__B752
Var_A320__T_B738__T_B77W__B77W
Var_A320__T_B77W
Var_A320__T_B77W__A320
Var_A320__T_B77W__B752
Var_A320__T_B77W__B77W
Var_A320__T_B77W__T_A320__A320
Var_A320__T_B77W__T_A320__B752
Var_A320__T_B77W__T_A320__B77W
Var_A320__T_B77W__T_B738__A320
Var_A320__T_B77W__T_B738__B752
Var_A320__T_B77W__T_B738__B77W
Var_A320__T_B77W__T_B77W__A320
Var_A320__T_B77W__T_B77W__B752
Var_A320__T_B77W__T_B77W__B77W
Var_B752__0
Var_B752__A320
Var_B752__B752
Var_B752__B77W
Var_B752__T_A320
Var_B752__T_A320__A320
Var_B752__T_A320__B752
Var_B752__T_A320__B77W
Var_B752__T_A320__T_A320__A320
Var_B752__T_A320__T_A320__B752
Var_B752__T_A320__T_A320__B77W
Var_B752__T_A320__T_B738__A320
Var_B752__T_A320__T_B738__B752
Var_B752__T_A320__T_B738__B77W
Var_B752__T_A320__T_B77W__A320
Var_B752__T_A320__T_B77W__B752
Var_B752__T_A320__T_B77W__B77W
Var_B752__T_B738
Var_B752__T_B738__A320
Var_B752__T_B738__B752
Var_B752__T_B738__B77W
Var_B752__T_B738__T_A320__A320
Var_B752__T_B738__T_A320__B752
Var_B752__T_B738__T_A320__B77W
Var_B752__T_B738__T_B738__A320
Var_B752__T_B738__T_B738__B752
Var_B752__T_B738__T_B738__B77W
Var_B752__T_B738__T_B77W__A320
Var_B752__T_B738__T_B77W__B752
Var_B752__T_B738__T_B77W__B77W
Var_B752__T_B77W
Var_B752__T_B77W__A320
Var_B752__T_B77W__B752
Var_B752__T_B77W__B77W
Var_B752__T_B77W__T_A320__A320
Var_B752__T_B77W__T_A320__B752
Var_B752__T_B77W__T_A320__B77W
Var_B752__T_B77W__T_B738__A320
Var_B752__T_B77W__T_B738__B752
Var_B752__T_B77W__T_B738__B77W
Var_B752__T_B77W__T_B77W__A320
Var_B752__T_B77W__T_B77W__B752
Var_B752__T_B77W__T_B77W__B77W
Var_B77W__0
Var_B77W__A320
Var_B77W__B752
Var_B77W__B77W
Var_B77W__T_A320
Var_B77W__T_A320__A320
Var_B77W__T_A320__B752
Var_B77W__T_A320__B77W
Var_B77W__T_A320__T_A320__A320
Var_B77W__T_A320__T_A320__B752
Var_B77W__T_A320__T_A320__B77W
Var_B77W__T_A320__T_B738__A320
Var_B77W__T_A320__T_B738__B752
Var_B77W__T_A320__T_B738__B77W
Var_B77W__T_A320__T_B77W__A320
Var_B77W__T_A320__T_B77W__B752
Var_B77W__T_A320__T_B77W__B77W
Var_B77W__T_B738
Var_B77W__T_B738__A320
Var_B77W__T_B738__B752
Var_B77W__T_B738__B77W
Var_B77W__T_B738__T_A320__A320
Var_B77W__T_B738__T_A320__B752
Var_B77W__T_B738__T_A320__B77W
Var_B77W__T_B738__T_B738__A320
Var_B77W__T_B738__T_B738__B752
Var_B77W__T_B738__T_B738__B77W
Var_B77W__T_B738__T_B77W__A320
Var_B77W__T_B738__T_B77W__B752
Var_B77W__T_B738__T_B77W__B77W
Var_B77W__T_B77W
Var_B77W__T_B77W__A320
Var_B77W__T_B77W__B752
Var_B77W__T_B77W__B77W
Var_B77W__T_B77W__T_A320__A320
Var_B77W__T_B77W__T_A320__B752
Var_B77W__T_B77W__T_A320__B77W
Var_B77W__T_B77W__T_B738__A320
Var_B77W__T_B77W__T_B738__B752
Var_B77W__T_B77W__T_B738__B77W
Var_B77W__T_B77W__T_B77W__A320
Var_B77W__T_B77W__T_B77W__B752
Var_B77W__T_B77W__T_B77W__B77W
Var_T_A320__0
Var_T_A320__T_A320
Var_T_A320__T_B738
Var_T_A320__T_B77W
Var_T_B738__0
Var_T_B738__T_A320
Var_T_B738__T_B738
Var_T_B738__T_B77W
Var_T_B77W__0
Var_T_B77W__T_A320
Var_T_B77W__T_B738
Var_T_B77W__T_B77W
End
